sat

(objectives
 ((bvadd PriceProv8 (bvadd PriceProv7 (bvadd PriceProv6 (bvadd PriceProv5 (bvadd PriceProv4 (bvadd PriceProv3 (bvadd PriceProv1 PriceProv2))))))) (_ bv1424 32))
)
;; statistics
(
 :cnf-variables 3103
 :cnf-literals 14688
 :cnf-clauses 6183
 :sat-checks 11
 :sat-restarts 51
 :sat-decisions 173683
 :sat-random-decisions 80
 :sat-propagations 745441609
 :sat-theory-propagations 2
 :sat-watched-clauses-visited 856806699
 :sat-binary-watched-clauses-visited 508974319
 :sat-conflicts 62841
 :sat-theory-conflicts 0
 :theory-necessary-interface-equalities 0
 :theory-extra-interface-equalities 0
 :euf-total-calls 178463
 :euf-complete-calls 14
 :euf-conflicts 0
 :euf-implications 2
 :euf-explanations 0
 :euf-egraph-nodes-created 54780
 :euf-egraph-nodes-deleted 49942
 :euf-num-asserted-equalities 4427369
 :euf-num-asserted-inequalities 3339111
 :euf-num-merges 7234754
 :euf-num-merges-undone 7234754
 :euf-num-atoms-retold 11808
 :la-total-calls 178463
 :la-complete-calls 14
 :la-conflicts 0
 :la-implications 0
 :la-explanations 0
 :la-num-equalities-split 0
 :la-num-tableau-rows 0
 :la-num-tableau-variables 0
 :bv-total-calls 178463
 :bv-complete-calls 14
 :bv-conflicts 0
 :bv-implications 0
 :bv-explanations 0
 :fp-total-calls 178463
 :fp-complete-calls 14
 :fp-conflicts 0
 :fp-implications 0
 :fp-explanations 0
 :arr-total-calls 178463
 :arr-complete-calls 14
 :arr-conflicts 0
 :arr-implications 0
 :arr-explanations 0
 :arr-write-lemmas-added 0
 :arr-row-lemmas-added 0
 :arr-ext-lemmas-added 0
 :arr-const-lemmas-added 0
 :na-total-calls 178463
 :na-complete-calls 14
 :na-conflicts 0
 :na-implications 0
 :na-explanations 0
 :na-num_nonlinear_multiplications 0
 :na-num_axiom_checks 0
 :na-num_zero_lemmas 0
 :na-num_sign_lemmas 0
 :na-num_neutral_lemmas 0
 :na-num_proportionality_lemmas 0
 :na-num_bound_lemmas 0
 :na-num_tangent_lemmas 0
 :na-num_monotonicity_lemmas 0
 :na-num_sat_checks 0
 :na-axiom_check_time 0.000
 :na-sat_check_time 0.000
 :time-seconds 186.592
 :memory-mb 156.538
)
